c Reduced graph for r30 generated by Cyril Grelier
p edge 301 4122
e 1 2
e 1 3
e 1 4
e 1 5
e 1 6
e 1 9
e 1 10
e 1 11
e 1 12
e 1 15
e 1 16
e 1 18
e 1 23
e 1 24
e 1 28
e 1 33
e 1 34
e 1 35
e 1 36
e 1 47
e 1 65
e 1 68
e 1 69
e 1 70
e 1 94
e 1 101
e 1 116
e 1 122
e 1 158
e 1 188
e 1 209
e 1 235
e 1 236
e 1 237
e 2 3
e 2 5
e 2 6
e 2 8
e 2 15
e 2 16
e 2 18
e 2 23
e 2 24
e 2 25
e 2 26
e 2 27
e 2 28
e 2 33
e 2 34
e 2 47
e 2 57
e 2 58
e 2 59
e 2 60
e 2 65
e 2 70
e 2 94
e 2 101
e 2 102
e 2 103
e 2 122
e 2 147
e 2 178
e 2 226
e 2 227
e 2 250
e 3 5
e 3 6
e 3 15
e 3 16
e 3 18
e 3 23
e 3 24
e 3 28
e 3 29
e 3 30
e 3 31
e 3 32
e 3 33
e 3 34
e 3 47
e 3 62
e 3 63
e 3 64
e 3 65
e 3 70
e 3 94
e 3 101
e 3 107
e 3 108
e 3 122
e 3 151
e 3 180
e 3 206
e 3 229
e 3 230
e 3 231
e 4 7
e 4 8
e 4 9
e 4 10
e 4 11
e 4 12
e 4 13
e 4 14
e 4 17
e 4 35
e 4 36
e 4 45
e 4 46
e 4 52
e 4 56
e 4 61
e 4 66
e 4 67
e 4 68
e 4 69
e 4 84
e 4 109
e 4 116
e 4 117
e 4 139
e 4 158
e 4 163
e 4 188
e 4 209
e 4 235
e 4 236
e 4 237
e 5 6
e 5 13
e 5 15
e 5 16
e 5 18
e 5 23
e 5 24
e 5 28
e 5 33
e 5 34
e 5 37
e 5 38
e 5 39
e 5 40
e 5 47
e 5 65
e 5 70
e 5 71
e 5 72
e 5 73
e 5 74
e 5 94
e 5 101
e 5 118
e 5 119
e 5 122
e 5 191
e 5 212
e 5 239
e 5 253
e 6 15
e 6 16
e 6 17
e 6 18
e 6 23
e 6 24
e 6 28
e 6 33
e 6 34
e 6 47
e 6 48
e 6 49
e 6 50
e 6 51
e 6 65
e 6 70
e 6 85
e 6 86
e 6 87
e 6 94
e 6 101
e 6 122
e 6 134
e 6 135
e 6 168
e 6 245
e 6 260
e 6 261
e 7 8
e 7 13
e 7 14
e 7 17
e 7 19
e 7 20
e 7 21
e 7 22
e 7 45
e 7 46
e 7 52
e 7 53
e 7 54
e 7 55
e 7 56
e 7 61
e 7 66
e 7 67
e 7 84
e 7 92
e 7 93
e 7 109
e 7 117
e 7 139
e 7 163
e 7 197
e 7 220
e 7 221
e 7 222
e 7 246
e 7 247
e 8 13
e 8 14
e 8 17
e 8 25
e 8 26
e 8 27
e 8 45
e 8 46
e 8 52
e 8 56
e 8 57
e 8 58
e 8 59
e 8 60
e 8 61
e 8 66
e 8 67
e 8 84
e 8 102
e 8 103
e 8 109
e 8 117
e 8 139
e 8 147
e 8 163
e 8 178
e 8 226
e 8 227
e 8 250
e 9 10
e 9 11
e 9 12
e 9 19
e 9 25
e 9 29
e 9 35
e 9 36
e 9 37
e 9 41
e 9 48
e 9 68
e 9 69
e 9 78
e 9 81
e 9 88
e 9 95
e 9 97
e 9 104
e 9 110
e 9 116
e 9 130
e 9 158
e 9 170
e 9 175
e 9 188
e 9 209
e 9 235
e 9 236
e 9 237
e 10 11
e 10 12
e 10 20
e 10 26
e 10 30
e 10 35
e 10 36
e 10 38
e 10 42
e 10 49
e 10 68
e 10 69
e 10 79
e 10 82
e 10 89
e 10 98
e 10 111
e 10 113
e 10 116
e 10 131
e 10 158
e 10 159
e 10 176
e 10 188
e 10 193
e 10 209
e 10 235
e 10 236
e 10 237
e 11 12
e 11 21
e 11 27
e 11 31
e 11 35
e 11 36
e 11 39
e 11 43
e 11 50
e 11 68
e 11 69
e 11 80
e 11 90
e 11 99
e 11 105
e 11 114
e 11 116
e 11 132
e 11 152
e 11 158
e 11 160
e 11 171
e 11 177
e 11 188
e 11 209
e 11 235
e 11 236
e 11 237
e 12 22
e 12 32
e 12 35
e 12 36
e 12 40
e 12 44
e 12 51
e 12 68
e 12 69
e 12 83
e 12 91
e 12 96
e 12 100
e 12 106
e 12 112
e 12 115
e 12 116
e 12 133
e 12 158
e 12 161
e 12 172
e 12 188
e 12 194
e 12 209
e 12 235
e 12 236
e 12 237
e 13 14
e 13 17
e 13 37
e 13 38
e 13 39
e 13 40
e 13 45
e 13 46
e 13 52
e 13 56
e 13 61
e 13 66
e 13 67
e 13 71
e 13 72
e 13 73
e 13 74
e 13 84
e 13 109
e 13 117
e 13 118
e 13 119
e 13 139
e 13 163
e 13 191
e 13 212
e 13 239
e 13 253
e 14 17
e 14 41
e 14 42
e 14 43
e 14 44
e 14 45
e 14 46
e 14 52
e 14 56
e 14 61
e 14 66
e 14 67
e 14 75
e 14 76
e 14 77
e 14 84
e 14 109
e 14 117
e 14 120
e 14 121
e 14 139
e 14 162
e 14 163
e 14 192
e 14 213
e 14 240
e 14 241
e 14 254
e 15 16
e 15 18
e 15 23
e 15 24
e 15 28
e 15 33
e 15 34
e 15 45
e 15 47
e 15 65
e 15 70
e 15 78
e 15 79
e 15 80
e 15 94
e 15 101
e 15 122
e 15 123
e 15 124
e 15 125
e 15 164
e 15 165
e 15 195
e 15 243
e 15 256
e 15 272
e 15 273
e 16 18
e 16 23
e 16 24
e 16 28
e 16 33
e 16 34
e 16 46
e 16 47
e 16 65
e 16 70
e 16 81
e 16 82
e 16 83
e 16 94
e 16 101
e 16 122
e 16 126
e 16 127
e 16 128
e 16 129
e 16 218
e 16 244
e 16 257
e 16 258
e 16 274
e 16 275
e 17 45
e 17 46
e 17 48
e 17 49
e 17 50
e 17 51
e 17 52
e 17 56
e 17 61
e 17 66
e 17 67
e 17 84
e 17 85
e 17 86
e 17 87
e 17 109
e 17 117
e 17 134
e 17 135
e 17 139
e 17 163
e 17 168
e 17 245
e 17 260
e 17 261
e 18 23
e 18 24
e 18 28
e 18 33
e 18 34
e 18 47
e 18 52
e 18 65
e 18 70
e 18 88
e 18 89
e 18 90
e 18 91
e 18 94
e 18 101
e 18 122
e 18 136
e 18 137
e 18 138
e 18 169
e 18 219
e 18 262
e 18 278
e 18 279
e 19 20
e 19 21
e 19 22
e 19 25
e 19 29
e 19 37
e 19 41
e 19 48
e 19 53
e 19 54
e 19 55
e 19 78
e 19 81
e 19 88
e 19 92
e 19 93
e 19 95
e 19 97
e 19 104
e 19 110
e 19 130
e 19 170
e 19 175
e 19 197
e 19 220
e 19 221
e 19 222
e 19 246
e 19 247
e 20 21
e 20 22
e 20 26
e 20 30
e 20 38
e 20 42
e 20 49
e 20 53
e 20 54
e 20 55
e 20 79
e 20 82
e 20 89
e 20 92
e 20 93
e 20 98
e 20 111
e 20 113
e 20 131
e 20 159
e 20 176
e 20 193
e 20 197
e 20 220
e 20 221
e 20 222
e 20 246
e 20 247
e 21 22
e 21 27
e 21 31
e 21 39
e 21 43
e 21 50
e 21 53
e 21 54
e 21 55
e 21 80
e 21 90
e 21 92
e 21 93
e 21 99
e 21 105
e 21 114
e 21 132
e 21 152
e 21 160
e 21 171
e 21 177
e 21 197
e 21 220
e 21 221
e 21 222
e 21 246
e 21 247
e 22 32
e 22 40
e 22 44
e 22 51
e 22 53
e 22 54
e 22 55
e 22 83
e 22 91
e 22 92
e 22 93
e 22 96
e 22 100
e 22 106
e 22 112
e 22 115
e 22 133
e 22 161
e 22 172
e 22 194
e 22 197
e 22 220
e 22 221
e 22 222
e 22 246
e 22 247
e 23 24
e 23 28
e 23 33
e 23 34
e 23 47
e 23 65
e 23 70
e 23 94
e 23 95
e 23 96
e 23 101
e 23 122
e 23 140
e 23 141
e 23 142
e 23 173
e 23 201
e 23 223
e 23 249
e 23 264
e 23 265
e 23 266
e 23 280
e 24 28
e 24 33
e 24 34
e 24 47
e 24 56
e 24 65
e 24 70
e 24 94
e 24 97
e 24 98
e 24 99
e 24 100
e 24 101
e 24 122
e 24 143
e 24 144
e 24 145
e 24 146
e 24 174
e 24 202
e 24 281
e 24 282
e 25 26
e 25 27
e 25 29
e 25 37
e 25 41
e 25 48
e 25 57
e 25 58
e 25 59
e 25 60
e 25 78
e 25 81
e 25 88
e 25 95
e 25 97
e 25 102
e 25 103
e 25 104
e 25 110
e 25 130
e 25 147
e 25 170
e 25 175
e 25 178
e 25 226
e 25 227
e 25 250
e 26 27
e 26 30
e 26 38
e 26 42
e 26 49
e 26 57
e 26 58
e 26 59
e 26 60
e 26 79
e 26 82
e 26 89
e 26 98
e 26 102
e 26 103
e 26 111
e 26 113
e 26 131
e 26 147
e 26 159
e 26 176
e 26 178
e 26 193
e 26 226
e 26 227
e 26 250
e 27 31
e 27 39
e 27 43
e 27 50
e 27 57
e 27 58
e 27 59
e 27 60
e 27 80
e 27 90
e 27 99
e 27 102
e 27 103
e 27 105
e 27 114
e 27 132
e 27 147
e 27 152
e 27 160
e 27 171
e 27 177
e 27 178
e 27 226
e 27 227
e 27 250
e 28 33
e 28 34
e 28 47
e 28 61
e 28 65
e 28 70
e 28 94
e 28 101
e 28 104
e 28 105
e 28 106
e 28 122
e 28 148
e 28 149
e 28 150
e 28 179
e 28 205
e 28 228
e 28 267
e 28 284
e 28 285
e 29 30
e 29 31
e 29 32
e 29 37
e 29 41
e 29 48
e 29 62
e 29 63
e 29 64
e 29 78
e 29 81
e 29 88
e 29 95
e 29 97
e 29 104
e 29 107
e 29 108
e 29 110
e 29 130
e 29 151
e 29 170
e 29 175
e 29 180
e 29 206
e 29 229
e 29 230
e 29 231
e 30 31
e 30 32
e 30 38
e 30 42
e 30 49
e 30 62
e 30 63
e 30 64
e 30 79
e 30 82
e 30 89
e 30 98
e 30 107
e 30 108
e 30 111
e 30 113
e 30 131
e 30 151
e 30 159
e 30 176
e 30 180
e 30 193
e 30 206
e 30 229
e 30 230
e 30 231
e 31 32
e 31 39
e 31 43
e 31 50
e 31 62
e 31 63
e 31 64
e 31 80
e 31 90
e 31 99
e 31 105
e 31 107
e 31 108
e 31 114
e 31 132
e 31 151
e 31 152
e 31 160
e 31 171
e 31 177
e 31 180
e 31 206
e 31 229
e 31 230
e 31 231
e 32 40
e 32 44
e 32 51
e 32 62
e 32 63
e 32 64
e 32 83
e 32 91
e 32 96
e 32 100
e 32 106
e 32 107
e 32 108
e 32 112
e 32 115
e 32 133
e 32 151
e 32 161
e 32 172
e 32 180
e 32 194
e 32 206
e 32 229
e 32 230
e 32 231
e 33 34
e 33 47
e 33 65
e 33 66
e 33 70
e 33 94
e 33 101
e 33 110
e 33 111
e 33 112
e 33 122
e 33 153
e 33 154
e 33 155
e 33 185
e 33 186
e 33 233
e 33 269
e 33 288
e 33 289
e 34 47
e 34 65
e 34 67
e 34 70
e 34 94
e 34 101
e 34 113
e 34 114
e 34 115
e 34 122
e 34 156
e 34 157
e 34 187
e 34 208
e 34 234
e 34 251
e 34 270
e 34 271
e 34 290
e 35 36
e 35 53
e 35 57
e 35 62
e 35 68
e 35 69
e 35 71
e 35 116
e 35 123
e 35 126
e 35 136
e 35 140
e 35 143
e 35 148
e 35 153
e 35 158
e 35 181
e 35 188
e 35 189
e 35 203
e 35 209
e 35 214
e 35 235
e 35 236
e 35 237
e 36 60
e 36 68
e 36 69
e 36 74
e 36 77
e 36 87
e 36 116
e 36 125
e 36 129
e 36 138
e 36 146
e 36 150
e 36 155
e 36 157
e 36 158
e 36 167
e 36 184
e 36 188
e 36 200
e 36 209
e 36 217
e 36 235
e 36 236
e 36 237
e 37 38
e 37 39
e 37 40
e 37 41
e 37 48
e 37 71
e 37 72
e 37 73
e 37 74
e 37 78
e 37 81
e 37 88
e 37 95
e 37 97
e 37 104
e 37 110
e 37 118
e 37 119
e 37 130
e 37 170
e 37 175
e 37 191
e 37 212
e 37 239
e 37 253
e 38 39
e 38 40
e 38 42
e 38 49
e 38 71
e 38 72
e 38 73
e 38 74
e 38 79
e 38 82
e 38 89
e 38 98
e 38 111
e 38 113
e 38 118
e 38 119
e 38 131
e 38 159
e 38 176
e 38 191
e 38 193
e 38 212
e 38 239
e 38 253
e 39 40
e 39 43
e 39 50
e 39 71
e 39 72
e 39 73
e 39 74
e 39 80
e 39 90
e 39 99
e 39 105
e 39 114
e 39 118
e 39 119
e 39 132
e 39 152
e 39 160
e 39 171
e 39 177
e 39 191
e 39 212
e 39 239
e 39 253
e 40 44
e 40 51
e 40 71
e 40 72
e 40 73
e 40 74
e 40 83
e 40 91
e 40 96
e 40 100
e 40 106
e 40 112
e 40 115
e 40 118
e 40 119
e 40 133
e 40 161
e 40 172
e 40 191
e 40 194
e 40 212
e 40 239
e 40 253
e 41 42
e 41 43
e 41 44
e 41 48
e 41 75
e 41 76
e 41 77
e 41 78
e 41 81
e 41 88
e 41 95
e 41 97
e 41 104
e 41 110
e 41 120
e 41 121
e 41 130
e 41 162
e 41 170
e 41 175
e 41 192
e 41 213
e 41 240
e 41 241
e 41 254
e 42 43
e 42 44
e 42 49
e 42 75
e 42 76
e 42 77
e 42 79
e 42 82
e 42 89
e 42 98
e 42 111
e 42 113
e 42 120
e 42 121
e 42 131
e 42 159
e 42 162
e 42 176
e 42 192
e 42 193
e 42 213
e 42 240
e 42 241
e 42 254
e 43 44
e 43 50
e 43 75
e 43 76
e 43 77
e 43 80
e 43 90
e 43 99
e 43 105
e 43 114
e 43 120
e 43 121
e 43 132
e 43 152
e 43 160
e 43 162
e 43 171
e 43 177
e 43 192
e 43 213
e 43 240
e 43 241
e 43 254
e 44 51
e 44 75
e 44 76
e 44 77
e 44 83
e 44 91
e 44 96
e 44 100
e 44 106
e 44 112
e 44 115
e 44 120
e 44 121
e 44 133
e 44 161
e 44 162
e 44 172
e 44 192
e 44 194
e 44 213
e 44 240
e 44 241
e 44 254
e 45 46
e 45 52
e 45 56
e 45 61
e 45 66
e 45 67
e 45 78
e 45 79
e 45 80
e 45 84
e 45 109
e 45 117
e 45 123
e 45 124
e 45 125
e 45 139
e 45 163
e 45 164
e 45 165
e 45 195
e 45 243
e 45 256
e 45 272
e 45 273
e 46 52
e 46 56
e 46 61
e 46 66
e 46 67
e 46 81
e 46 82
e 46 83
e 46 84
e 46 109
e 46 117
e 46 126
e 46 127
e 46 128
e 46 129
e 46 139
e 46 163
e 46 218
e 46 244
e 46 257
e 46 258
e 46 274
e 46 275
e 47 65
e 47 70
e 47 84
e 47 94
e 47 101
e 47 122
e 47 130
e 47 131
e 47 132
e 47 133
e 47 166
e 47 167
e 47 196
e 47 259
e 47 276
e 47 277
e 47 293
e 48 49
e 48 50
e 48 51
e 48 78
e 48 81
e 48 85
e 48 86
e 48 87
e 48 88
e 48 95
e 48 97
e 48 104
e 48 110
e 48 130
e 48 134
e 48 135
e 48 168
e 48 170
e 48 175
e 48 245
e 48 260
e 48 261
e 49 50
e 49 51
e 49 79
e 49 82
e 49 85
e 49 86
e 49 87
e 49 89
e 49 98
e 49 111
e 49 113
e 49 131
e 49 134
e 49 135
e 49 159
e 49 168
e 49 176
e 49 193
e 49 245
e 49 260
e 49 261
e 50 51
e 50 80
e 50 85
e 50 86
e 50 87
e 50 90
e 50 99
e 50 105
e 50 114
e 50 132
e 50 134
e 50 135
e 50 152
e 50 160
e 50 168
e 50 171
e 50 177
e 50 245
e 50 260
e 50 261
e 51 83
e 51 85
e 51 86
e 51 87
e 51 91
e 51 96
e 51 100
e 51 106
e 51 112
e 51 115
e 51 133
e 51 134
e 51 135
e 51 161
e 51 168
e 51 172
e 51 194
e 51 245
e 51 260
e 51 261
e 52 56
e 52 61
e 52 66
e 52 67
e 52 84
e 52 88
e 52 89
e 52 90
e 52 91
e 52 109
e 52 117
e 52 136
e 52 137
e 52 138
e 52 139
e 52 163
e 52 169
e 52 219
e 52 262
e 52 278
e 52 279
e 53 54
e 53 55
e 53 57
e 53 62
e 53 71
e 53 92
e 53 93
e 53 123
e 53 126
e 53 136
e 53 140
e 53 143
e 53 148
e 53 153
e 53 181
e 53 189
e 53 197
e 53 203
e 53 214
e 53 220
e 53 221
e 53 222
e 53 246
e 53 247
e 54 55
e 54 58
e 54 63
e 54 72
e 54 75
e 54 85
e 54 92
e 54 93
e 54 124
e 54 127
e 54 141
e 54 144
e 54 149
e 54 156
e 54 182
e 54 190
e 54 197
e 54 198
e 54 215
e 54 220
e 54 221
e 54 222
e 54 246
e 54 247
e 55 59
e 55 64
e 55 73
e 55 76
e 55 86
e 55 92
e 55 93
e 55 128
e 55 137
e 55 142
e 55 145
e 55 154
e 55 166
e 55 183
e 55 197
e 55 199
e 55 204
e 55 216
e 55 220
e 55 221
e 55 222
e 55 246
e 55 247
e 56 61
e 56 66
e 56 67
e 56 84
e 56 97
e 56 98
e 56 99
e 56 100
e 56 109
e 56 117
e 56 139
e 56 143
e 56 144
e 56 145
e 56 146
e 56 163
e 56 174
e 56 202
e 56 281
e 56 282
e 57 58
e 57 59
e 57 60
e 57 62
e 57 71
e 57 102
e 57 103
e 57 123
e 57 126
e 57 136
e 57 140
e 57 143
e 57 147
e 57 148
e 57 153
e 57 178
e 57 181
e 57 189
e 57 203
e 57 214
e 57 226
e 57 227
e 57 250
e 58 59
e 58 60
e 58 63
e 58 72
e 58 75
e 58 85
e 58 102
e 58 103
e 58 124
e 58 127
e 58 141
e 58 144
e 58 147
e 58 149
e 58 156
e 58 178
e 58 182
e 58 190
e 58 198
e 58 215
e 58 226
e 58 227
e 58 250
e 59 60
e 59 64
e 59 73
e 59 76
e 59 86
e 59 102
e 59 103
e 59 128
e 59 137
e 59 142
e 59 145
e 59 147
e 59 154
e 59 166
e 59 178
e 59 183
e 59 199
e 59 204
e 59 216
e 59 226
e 59 227
e 59 250
e 60 74
e 60 77
e 60 87
e 60 102
e 60 103
e 60 125
e 60 129
e 60 138
e 60 146
e 60 147
e 60 150
e 60 155
e 60 157
e 60 167
e 60 178
e 60 184
e 60 200
e 60 217
e 60 226
e 60 227
e 60 250
e 61 66
e 61 67
e 61 84
e 61 104
e 61 105
e 61 106
e 61 109
e 61 117
e 61 139
e 61 148
e 61 149
e 61 150
e 61 163
e 61 179
e 61 205
e 61 228
e 61 267
e 61 284
e 61 285
e 62 63
e 62 64
e 62 71
e 62 107
e 62 108
e 62 123
e 62 126
e 62 136
e 62 140
e 62 143
e 62 148
e 62 151
e 62 153
e 62 180
e 62 181
e 62 189
e 62 203
e 62 206
e 62 214
e 62 229
e 62 230
e 62 231
e 63 64
e 63 72
e 63 75
e 63 85
e 63 107
e 63 108
e 63 124
e 63 127
e 63 141
e 63 144
e 63 149
e 63 151
e 63 156
e 63 180
e 63 182
e 63 190
e 63 198
e 63 206
e 63 215
e 63 229
e 63 230
e 63 231
e 64 73
e 64 76
e 64 86
e 64 107
e 64 108
e 64 128
e 64 137
e 64 142
e 64 145
e 64 151
e 64 154
e 64 166
e 64 180
e 64 183
e 64 199
e 64 204
e 64 206
e 64 216
e 64 229
e 64 230
e 64 231
e 65 70
e 65 94
e 65 101
e 65 109
e 65 122
e 65 152
e 65 181
e 65 182
e 65 183
e 65 184
e 65 207
e 65 232
e 65 268
e 65 286
e 65 287
e 65 296
e 66 67
e 66 84
e 66 109
e 66 110
e 66 111
e 66 112
e 66 117
e 66 139
e 66 153
e 66 154
e 66 155
e 66 163
e 66 185
e 66 186
e 66 233
e 66 269
e 66 288
e 66 289
e 67 84
e 67 109
e 67 113
e 67 114
e 67 115
e 67 117
e 67 139
e 67 156
e 67 157
e 67 163
e 67 187
e 67 208
e 67 234
e 67 251
e 67 270
e 67 271
e 67 290
e 68 69
e 68 92
e 68 102
e 68 107
e 68 116
e 68 118
e 68 120
e 68 134
e 68 158
e 68 164
e 68 174
e 68 179
e 68 185
e 68 187
e 68 188
e 68 209
e 68 210
e 68 224
e 68 235
e 68 236
e 68 237
e 68 242
e 69 93
e 69 103
e 69 108
e 69 116
e 69 119
e 69 121
e 69 135
e 69 158
e 69 165
e 69 169
e 69 173
e 69 186
e 69 188
e 69 196
e 69 207
e 69 209
e 69 211
e 69 225
e 69 235
e 69 236
e 69 237
e 70 94
e 70 101
e 70 117
e 70 122
e 70 159
e 70 160
e 70 161
e 70 189
e 70 190
e 70 210
e 70 211
e 70 238
e 70 252
e 70 291
e 70 292
e 71 72
e 71 73
e 71 74
e 71 118
e 71 119
e 71 123
e 71 126
e 71 136
e 71 140
e 71 143
e 71 148
e 71 153
e 71 181
e 71 189
e 71 191
e 71 203
e 71 212
e 71 214
e 71 239
e 71 253
e 72 73
e 72 74
e 72 75
e 72 85
e 72 118
e 72 119
e 72 124
e 72 127
e 72 141
e 72 144
e 72 149
e 72 156
e 72 182
e 72 190
e 72 191
e 72 198
e 72 212
e 72 215
e 72 239
e 72 253
e 73 74
e 73 76
e 73 86
e 73 118
e 73 119
e 73 128
e 73 137
e 73 142
e 73 145
e 73 154
e 73 166
e 73 183
e 73 191
e 73 199
e 73 204
e 73 212
e 73 216
e 73 239
e 73 253
e 74 77
e 74 87
e 74 118
e 74 119
e 74 125
e 74 129
e 74 138
e 74 146
e 74 150
e 74 155
e 74 157
e 74 167
e 74 184
e 74 191
e 74 200
e 74 212
e 74 217
e 74 239
e 74 253
e 75 76
e 75 77
e 75 85
e 75 120
e 75 121
e 75 124
e 75 127
e 75 141
e 75 144
e 75 149
e 75 156
e 75 162
e 75 182
e 75 190
e 75 192
e 75 198
e 75 213
e 75 215
e 75 240
e 75 241
e 75 254
e 76 77
e 76 86
e 76 120
e 76 121
e 76 128
e 76 137
e 76 142
e 76 145
e 76 154
e 76 162
e 76 166
e 76 183
e 76 192
e 76 199
e 76 204
e 76 213
e 76 216
e 76 240
e 76 241
e 76 254
e 77 87
e 77 120
e 77 121
e 77 125
e 77 129
e 77 138
e 77 146
e 77 150
e 77 155
e 77 157
e 77 162
e 77 167
e 77 184
e 77 192
e 77 200
e 77 213
e 77 217
e 77 240
e 77 241
e 77 254
e 78 79
e 78 80
e 78 81
e 78 88
e 78 95
e 78 97
e 78 104
e 78 110
e 78 123
e 78 124
e 78 125
e 78 130
e 78 164
e 78 165
e 78 170
e 78 175
e 78 195
e 78 243
e 78 256
e 78 272
e 78 273
e 79 80
e 79 82
e 79 89
e 79 98
e 79 111
e 79 113
e 79 123
e 79 124
e 79 125
e 79 131
e 79 159
e 79 164
e 79 165
e 79 176
e 79 193
e 79 195
e 79 243
e 79 256
e 79 272
e 79 273
e 80 90
e 80 99
e 80 105
e 80 114
e 80 123
e 80 124
e 80 125
e 80 132
e 80 152
e 80 160
e 80 164
e 80 165
e 80 171
e 80 177
e 80 195
e 80 243
e 80 256
e 80 272
e 80 273
e 81 82
e 81 83
e 81 88
e 81 95
e 81 97
e 81 104
e 81 110
e 81 126
e 81 127
e 81 128
e 81 129
e 81 130
e 81 170
e 81 175
e 81 218
e 81 244
e 81 257
e 81 258
e 81 274
e 81 275
e 82 83
e 82 89
e 82 98
e 82 111
e 82 113
e 82 126
e 82 127
e 82 128
e 82 129
e 82 131
e 82 159
e 82 176
e 82 193
e 82 218
e 82 244
e 82 257
e 82 258
e 82 274
e 82 275
e 83 91
e 83 96
e 83 100
e 83 106
e 83 112
e 83 115
e 83 126
e 83 127
e 83 128
e 83 129
e 83 133
e 83 161
e 83 172
e 83 194
e 83 218
e 83 244
e 83 257
e 83 258
e 83 274
e 83 275
e 84 109
e 84 117
e 84 130
e 84 131
e 84 132
e 84 133
e 84 139
e 84 163
e 84 166
e 84 167
e 84 196
e 84 259
e 84 276
e 84 277
e 84 293
e 85 86
e 85 87
e 85 124
e 85 127
e 85 134
e 85 135
e 85 141
e 85 144
e 85 149
e 85 156
e 85 168
e 85 182
e 85 190
e 85 198
e 85 215
e 85 245
e 85 260
e 85 261
e 86 87
e 86 128
e 86 134
e 86 135
e 86 137
e 86 142
e 86 145
e 86 154
e 86 166
e 86 168
e 86 183
e 86 199
e 86 204
e 86 216
e 86 245
e 86 260
e 86 261
e 87 125
e 87 129
e 87 134
e 87 135
e 87 138
e 87 146
e 87 150
e 87 155
e 87 157
e 87 167
e 87 168
e 87 184
e 87 200
e 87 217
e 87 245
e 87 260
e 87 261
e 88 89
e 88 90
e 88 91
e 88 95
e 88 97
e 88 104
e 88 110
e 88 130
e 88 136
e 88 137
e 88 138
e 88 169
e 88 170
e 88 175
e 88 219
e 88 262
e 88 278
e 88 279
e 89 90
e 89 91
e 89 98
e 89 111
e 89 113
e 89 131
e 89 136
e 89 137
e 89 138
e 89 159
e 89 169
e 89 176
e 89 193
e 89 219
e 89 262
e 89 278
e 89 279
e 90 91
e 90 99
e 90 105
e 90 114
e 90 132
e 90 136
e 90 137
e 90 138
e 90 152
e 90 160
e 90 169
e 90 171
e 90 177
e 90 219
e 90 262
e 90 278
e 90 279
e 91 96
e 91 100
e 91 106
e 91 112
e 91 115
e 91 133
e 91 136
e 91 137
e 91 138
e 91 161
e 91 169
e 91 172
e 91 194
e 91 219
e 91 262
e 91 278
e 91 279
e 92 93
e 92 102
e 92 107
e 92 118
e 92 120
e 92 134
e 92 164
e 92 174
e 92 179
e 92 185
e 92 187
e 92 197
e 92 210
e 92 220
e 92 221
e 92 222
e 92 224
e 92 242
e 92 246
e 92 247
e 93 103
e 93 108
e 93 119
e 93 121
e 93 135
e 93 165
e 93 169
e 93 173
e 93 186
e 93 196
e 93 197
e 93 207
e 93 211
e 93 220
e 93 221
e 93 222
e 93 225
e 93 246
e 93 247
e 94 101
e 94 122
e 94 139
e 94 170
e 94 171
e 94 172
e 94 198
e 94 199
e 94 200
e 94 248
e 94 263
e 94 294
e 94 298
e 95 96
e 95 97
e 95 104
e 95 110
e 95 130
e 95 140
e 95 141
e 95 142
e 95 170
e 95 173
e 95 175
e 95 201
e 95 223
e 95 249
e 95 264
e 95 265
e 95 266
e 95 280
e 96 100
e 96 106
e 96 112
e 96 115
e 96 133
e 96 140
e 96 141
e 96 142
e 96 161
e 96 172
e 96 173
e 96 194
e 96 201
e 96 223
e 96 249
e 96 264
e 96 265
e 96 266
e 96 280
e 97 98
e 97 99
e 97 100
e 97 104
e 97 110
e 97 130
e 97 143
e 97 144
e 97 145
e 97 146
e 97 170
e 97 174
e 97 175
e 97 202
e 97 281
e 97 282
e 98 99
e 98 100
e 98 111
e 98 113
e 98 131
e 98 143
e 98 144
e 98 145
e 98 146
e 98 159
e 98 174
e 98 176
e 98 193
e 98 202
e 98 281
e 98 282
e 99 100
e 99 105
e 99 114
e 99 132
e 99 143
e 99 144
e 99 145
e 99 146
e 99 152
e 99 160
e 99 171
e 99 174
e 99 177
e 99 202
e 99 281
e 99 282
e 100 106
e 100 112
e 100 115
e 100 133
e 100 143
e 100 144
e 100 145
e 100 146
e 100 161
e 100 172
e 100 174
e 100 194
e 100 202
e 100 281
e 100 282
e 101 122
e 101 175
e 101 176
e 101 177
e 101 203
e 101 204
e 101 224
e 101 225
e 101 283
e 101 295
e 101 299
e 101 300
e 102 103
e 102 107
e 102 118
e 102 120
e 102 134
e 102 147
e 102 164
e 102 174
e 102 178
e 102 179
e 102 185
e 102 187
e 102 210
e 102 224
e 102 226
e 102 227
e 102 242
e 102 250
e 103 108
e 103 119
e 103 121
e 103 135
e 103 147
e 103 165
e 103 169
e 103 173
e 103 178
e 103 186
e 103 196
e 103 207
e 103 211
e 103 225
e 103 226
e 103 227
e 103 250
e 104 105
e 104 106
e 104 110
e 104 130
e 104 148
e 104 149
e 104 150
e 104 170
e 104 175
e 104 179
e 104 205
e 104 228
e 104 267
e 104 284
e 104 285
e 105 106
e 105 114
e 105 132
e 105 148
e 105 149
e 105 150
e 105 152
e 105 160
e 105 171
e 105 177
e 105 179
e 105 205
e 105 228
e 105 267
e 105 284
e 105 285
e 106 112
e 106 115
e 106 133
e 106 148
e 106 149
e 106 150
e 106 161
e 106 172
e 106 179
e 106 194
e 106 205
e 106 228
e 106 267
e 106 284
e 106 285
e 107 108
e 107 118
e 107 120
e 107 134
e 107 151
e 107 164
e 107 174
e 107 179
e 107 180
e 107 185
e 107 187
e 107 206
e 107 210
e 107 224
e 107 229
e 107 230
e 107 231
e 107 242
e 108 119
e 108 121
e 108 135
e 108 151
e 108 165
e 108 169
e 108 173
e 108 180
e 108 186
e 108 196
e 108 206
e 108 207
e 108 211
e 108 225
e 108 229
e 108 230
e 108 231
e 109 117
e 109 139
e 109 152
e 109 163
e 109 181
e 109 182
e 109 183
e 109 184
e 109 207
e 109 232
e 109 268
e 109 286
e 109 287
e 109 296
e 110 111
e 110 112
e 110 130
e 110 153
e 110 154
e 110 155
e 110 170
e 110 175
e 110 185
e 110 186
e 110 233
e 110 269
e 110 288
e 110 289
e 111 112
e 111 113
e 111 131
e 111 153
e 111 154
e 111 155
e 111 159
e 111 176
e 111 185
e 111 186
e 111 193
e 111 233
e 111 269
e 111 288
e 111 289
e 112 115
e 112 133
e 112 153
e 112 154
e 112 155
e 112 161
e 112 172
e 112 185
e 112 186
e 112 194
e 112 233
e 112 269
e 112 288
e 112 289
e 113 114
e 113 115
e 113 131
e 113 156
e 113 157
e 113 159
e 113 176
e 113 187
e 113 193
e 113 208
e 113 234
e 113 251
e 113 270
e 113 271
e 113 290
e 114 115
e 114 132
e 114 152
e 114 156
e 114 157
e 114 160
e 114 171
e 114 177
e 114 187
e 114 208
e 114 234
e 114 251
e 114 270
e 114 271
e 114 290
e 115 133
e 115 156
e 115 157
e 115 161
e 115 172
e 115 187
e 115 194
e 115 208
e 115 234
e 115 251
e 115 270
e 115 271
e 115 290
e 116 147
e 116 151
e 116 158
e 116 162
e 116 168
e 116 188
e 116 195
e 116 201
e 116 202
e 116 205
e 116 208
e 116 209
e 116 232
e 116 235
e 116 236
e 116 237
e 116 238
e 116 248
e 116 255
e 117 139
e 117 159
e 117 160
e 117 161
e 117 163
e 117 189
e 117 190
e 117 210
e 117 211
e 117 238
e 117 252
e 117 291
e 117 292
e 118 119
e 118 120
e 118 134
e 118 164
e 118 174
e 118 179
e 118 185
e 118 187
e 118 191
e 118 210
e 118 212
e 118 224
e 118 239
e 118 242
e 118 253
e 119 121
e 119 135
e 119 165
e 119 169
e 119 173
e 119 186
e 119 191
e 119 196
e 119 207
e 119 211
e 119 212
e 119 225
e 119 239
e 119 253
e 120 121
e 120 134
e 120 162
e 120 164
e 120 174
e 120 179
e 120 185
e 120 187
e 120 192
e 120 210
e 120 213
e 120 224
e 120 240
e 120 241
e 120 242
e 120 254
e 121 135
e 121 162
e 121 165
e 121 169
e 121 173
e 121 186
e 121 192
e 121 196
e 121 207
e 121 211
e 121 213
e 121 225
e 121 240
e 121 241
e 121 254
e 122 163
e 122 193
e 122 194
e 122 214
e 122 215
e 122 216
e 122 217
e 122 242
e 122 255
e 122 297
e 122 301
e 123 124
e 123 125
e 123 126
e 123 136
e 123 140
e 123 143
e 123 148
e 123 153
e 123 164
e 123 165
e 123 181
e 123 189
e 123 195
e 123 203
e 123 214
e 123 243
e 123 256
e 123 272
e 123 273
e 124 125
e 124 127
e 124 141
e 124 144
e 124 149
e 124 156
e 124 164
e 124 165
e 124 182
e 124 190
e 124 195
e 124 198
e 124 215
e 124 243
e 124 256
e 124 272
e 124 273
e 125 129
e 125 138
e 125 146
e 125 150
e 125 155
e 125 157
e 125 164
e 125 165
e 125 167
e 125 184
e 125 195
e 125 200
e 125 217
e 125 243
e 125 256
e 125 272
e 125 273
e 126 127
e 126 128
e 126 129
e 126 136
e 126 140
e 126 143
e 126 148
e 126 153
e 126 181
e 126 189
e 126 203
e 126 214
e 126 218
e 126 244
e 126 257
e 126 258
e 126 274
e 126 275
e 127 128
e 127 129
e 127 141
e 127 144
e 127 149
e 127 156
e 127 182
e 127 190
e 127 198
e 127 215
e 127 218
e 127 244
e 127 257
e 127 258
e 127 274
e 127 275
e 128 129
e 128 137
e 128 142
e 128 145
e 128 154
e 128 166
e 128 183
e 128 199
e 128 204
e 128 216
e 128 218
e 128 244
e 128 257
e 128 258
e 128 274
e 128 275
e 129 138
e 129 146
e 129 150
e 129 155
e 129 157
e 129 167
e 129 184
e 129 200
e 129 217
e 129 218
e 129 244
e 129 257
e 129 258
e 129 274
e 129 275
e 130 131
e 130 132
e 130 133
e 130 166
e 130 167
e 130 170
e 130 175
e 130 196
e 130 259
e 130 276
e 130 277
e 130 293
e 131 132
e 131 133
e 131 159
e 131 166
e 131 167
e 131 176
e 131 193
e 131 196
e 131 259
e 131 276
e 131 277
e 131 293
e 132 133
e 132 152
e 132 160
e 132 166
e 132 167
e 132 171
e 132 177
e 132 196
e 132 259
e 132 276
e 132 277
e 132 293
e 133 161
e 133 166
e 133 167
e 133 172
e 133 194
e 133 196
e 133 259
e 133 276
e 133 277
e 133 293
e 134 135
e 134 164
e 134 168
e 134 174
e 134 179
e 134 185
e 134 187
e 134 210
e 134 224
e 134 242
e 134 245
e 134 260
e 134 261
e 135 165
e 135 168
e 135 169
e 135 173
e 135 186
e 135 196
e 135 207
e 135 211
e 135 225
e 135 245
e 135 260
e 135 261
e 136 137
e 136 138
e 136 140
e 136 143
e 136 148
e 136 153
e 136 169
e 136 181
e 136 189
e 136 203
e 136 214
e 136 219
e 136 262
e 136 278
e 136 279
e 137 138
e 137 142
e 137 145
e 137 154
e 137 166
e 137 169
e 137 183
e 137 199
e 137 204
e 137 216
e 137 219
e 137 262
e 137 278
e 137 279
e 138 146
e 138 150
e 138 155
e 138 157
e 138 167
e 138 169
e 138 184
e 138 200
e 138 217
e 138 219
e 138 262
e 138 278
e 138 279
e 139 163
e 139 170
e 139 171
e 139 172
e 139 198
e 139 199
e 139 200
e 139 248
e 139 263
e 139 294
e 139 298
e 140 141
e 140 142
e 140 143
e 140 148
e 140 153
e 140 173
e 140 181
e 140 189
e 140 201
e 140 203
e 140 214
e 140 223
e 140 249
e 140 264
e 140 265
e 140 266
e 140 280
e 141 142
e 141 144
e 141 149
e 141 156
e 141 173
e 141 182
e 141 190
e 141 198
e 141 201
e 141 215
e 141 223
e 141 249
e 141 264
e 141 265
e 141 266
e 141 280
e 142 145
e 142 154
e 142 166
e 142 173
e 142 183
e 142 199
e 142 201
e 142 204
e 142 216
e 142 223
e 142 249
e 142 264
e 142 265
e 142 266
e 142 280
e 143 144
e 143 145
e 143 146
e 143 148
e 143 153
e 143 174
e 143 181
e 143 189
e 143 202
e 143 203
e 143 214
e 143 281
e 143 282
e 144 145
e 144 146
e 144 149
e 144 156
e 144 174
e 144 182
e 144 190
e 144 198
e 144 202
e 144 215
e 144 281
e 144 282
e 145 146
e 145 154
e 145 166
e 145 174
e 145 183
e 145 199
e 145 202
e 145 204
e 145 216
e 145 281
e 145 282
e 146 150
e 146 155
e 146 157
e 146 167
e 146 174
e 146 184
e 146 200
e 146 202
e 146 217
e 146 281
e 146 282
e 147 151
e 147 162
e 147 168
e 147 178
e 147 195
e 147 201
e 147 202
e 147 205
e 147 208
e 147 226
e 147 227
e 147 232
e 147 238
e 147 248
e 147 250
e 147 255
e 148 149
e 148 150
e 148 153
e 148 179
e 148 181
e 148 189
e 148 203
e 148 205
e 148 214
e 148 228
e 148 267
e 148 284
e 148 285
e 149 150
e 149 156
e 149 179
e 149 182
e 149 190
e 149 198
e 149 205
e 149 215
e 149 228
e 149 267
e 149 284
e 149 285
e 150 155
e 150 157
e 150 167
e 150 179
e 150 184
e 150 200
e 150 205
e 150 217
e 150 228
e 150 267
e 150 284
e 150 285
e 151 162
e 151 168
e 151 180
e 151 195
e 151 201
e 151 202
e 151 205
e 151 206
e 151 208
e 151 229
e 151 230
e 151 231
e 151 232
e 151 238
e 151 248
e 151 255
e 152 160
e 152 171
e 152 177
e 152 181
e 152 182
e 152 183
e 152 184
e 152 207
e 152 232
e 152 268
e 152 286
e 152 287
e 152 296
e 153 154
e 153 155
e 153 181
e 153 185
e 153 186
e 153 189
e 153 203
e 153 214
e 153 233
e 153 269
e 153 288
e 153 289
e 154 155
e 154 166
e 154 183
e 154 185
e 154 186
e 154 199
e 154 204
e 154 216
e 154 233
e 154 269
e 154 288
e 154 289
e 155 157
e 155 167
e 155 184
e 155 185
e 155 186
e 155 200
e 155 217
e 155 233
e 155 269
e 155 288
e 155 289
e 156 157
e 156 182
e 156 187
e 156 190
e 156 198
e 156 208
e 156 215
e 156 234
e 156 251
e 156 270
e 156 271
e 156 290
e 157 167
e 157 184
e 157 187
e 157 200
e 157 208
e 157 217
e 157 234
e 157 251
e 157 270
e 157 271
e 157 290
e 158 178
e 158 180
e 158 188
e 158 191
e 158 192
e 158 209
e 158 218
e 158 219
e 158 223
e 158 228
e 158 233
e 158 234
e 158 235
e 158 236
e 158 237
e 158 252
e 158 263
e 159 160
e 159 161
e 159 176
e 159 189
e 159 190
e 159 193
e 159 210
e 159 211
e 159 238
e 159 252
e 159 291
e 159 292
e 160 161
e 160 171
e 160 177
e 160 189
e 160 190
e 160 210
e 160 211
e 160 238
e 160 252
e 160 291
e 160 292
e 161 172
e 161 189
e 161 190
e 161 194
e 161 210
e 161 211
e 161 238
e 161 252
e 161 291
e 161 292
e 162 168
e 162 192
e 162 195
e 162 201
e 162 202
e 162 205
e 162 208
e 162 213
e 162 232
e 162 238
e 162 240
e 162 241
e 162 248
e 162 254
e 162 255
e 163 193
e 163 194
e 163 214
e 163 215
e 163 216
e 163 217
e 163 242
e 163 255
e 163 297
e 163 301
e 164 165
e 164 174
e 164 179
e 164 185
e 164 187
e 164 195
e 164 210
e 164 224
e 164 242
e 164 243
e 164 256
e 164 272
e 164 273
e 165 169
e 165 173
e 165 186
e 165 195
e 165 196
e 165 207
e 165 211
e 165 225
e 165 243
e 165 256
e 165 272
e 165 273
e 166 167
e 166 183
e 166 196
e 166 199
e 166 204
e 166 216
e 166 259
e 166 276
e 166 277
e 166 293
e 167 184
e 167 196
e 167 200
e 167 217
e 167 259
e 167 276
e 167 277
e 167 293
e 168 195
e 168 201
e 168 202
e 168 205
e 168 208
e 168 232
e 168 238
e 168 245
e 168 248
e 168 255
e 168 260
e 168 261
e 169 173
e 169 186
e 169 196
e 169 207
e 169 211
e 169 219
e 169 225
e 169 262
e 169 278
e 169 279
e 170 171
e 170 172
e 170 175
e 170 198
e 170 199
e 170 200
e 170 248
e 170 263
e 170 294
e 170 298
e 171 172
e 171 177
e 171 198
e 171 199
e 171 200
e 171 248
e 171 263
e 171 294
e 171 298
e 172 194
e 172 198
e 172 199
e 172 200
e 172 248
e 172 263
e 172 294
e 172 298
e 173 186
e 173 196
e 173 201
e 173 207
e 173 211
e 173 223
e 173 225
e 173 249
e 173 264
e 173 265
e 173 266
e 173 280
e 174 179
e 174 185
e 174 187
e 174 202
e 174 210
e 174 224
e 174 242
e 174 281
e 174 282
e 175 176
e 175 177
e 175 203
e 175 204
e 175 224
e 175 225
e 175 283
e 175 295
e 175 299
e 175 300
e 176 177
e 176 193
e 176 203
e 176 204
e 176 224
e 176 225
e 176 283
e 176 295
e 176 299
e 176 300
e 177 203
e 177 204
e 177 224
e 177 225
e 177 283
e 177 295
e 177 299
e 177 300
e 178 180
e 178 191
e 178 192
e 178 218
e 178 219
e 178 223
e 178 226
e 178 227
e 178 228
e 178 233
e 178 234
e 178 250
e 178 252
e 178 263
e 179 185
e 179 187
e 179 205
e 179 210
e 179 224
e 179 228
e 179 242
e 179 267
e 179 284
e 179 285
e 180 191
e 180 192
e 180 206
e 180 218
e 180 219
e 180 223
e 180 228
e 180 229
e 180 230
e 180 231
e 180 233
e 180 234
e 180 252
e 180 263
e 181 182
e 181 183
e 181 184
e 181 189
e 181 203
e 181 207
e 181 214
e 181 232
e 181 268
e 181 286
e 181 287
e 181 296
e 182 183
e 182 184
e 182 190
e 182 198
e 182 207
e 182 215
e 182 232
e 182 268
e 182 286
e 182 287
e 182 296
e 183 184
e 183 199
e 183 204
e 183 207
e 183 216
e 183 232
e 183 268
e 183 286
e 183 287
e 183 296
e 184 200
e 184 207
e 184 217
e 184 232
e 184 268
e 184 286
e 184 287
e 184 296
e 185 186
e 185 187
e 185 210
e 185 224
e 185 233
e 185 242
e 185 269
e 185 288
e 185 289
e 186 196
e 186 207
e 186 211
e 186 225
e 186 233
e 186 269
e 186 288
e 186 289
e 187 208
e 187 210
e 187 224
e 187 234
e 187 242
e 187 251
e 187 270
e 187 271
e 187 290
e 188 197
e 188 206
e 188 209
e 188 212
e 188 213
e 188 235
e 188 236
e 188 237
e 188 243
e 188 244
e 188 249
e 188 251
e 188 259
e 188 268
e 188 283
e 189 190
e 189 203
e 189 210
e 189 211
e 189 214
e 189 238
e 189 252
e 189 291
e 189 292
e 190 198
e 190 210
e 190 211
e 190 215
e 190 238
e 190 252
e 190 291
e 190 292
e 191 192
e 191 212
e 191 218
e 191 219
e 191 223
e 191 228
e 191 233
e 191 234
e 191 239
e 191 252
e 191 253
e 191 263
e 192 213
e 192 218
e 192 219
e 192 223
e 192 228
e 192 233
e 192 234
e 192 240
e 192 241
e 192 252
e 192 254
e 192 263
e 193 194
e 193 214
e 193 215
e 193 216
e 193 217
e 193 242
e 193 255
e 193 297
e 193 301
e 194 214
e 194 215
e 194 216
e 194 217
e 194 242
e 194 255
e 194 297
e 194 301
e 195 201
e 195 202
e 195 205
e 195 208
e 195 232
e 195 238
e 195 243
e 195 248
e 195 255
e 195 256
e 195 272
e 195 273
e 196 207
e 196 211
e 196 225
e 196 259
e 196 276
e 196 277
e 196 293
e 197 206
e 197 212
e 197 213
e 197 220
e 197 221
e 197 222
e 197 243
e 197 244
e 197 246
e 197 247
e 197 249
e 197 251
e 197 259
e 197 268
e 197 283
e 198 199
e 198 200
e 198 215
e 198 248
e 198 263
e 198 294
e 198 298
e 199 200
e 199 204
e 199 216
e 199 248
e 199 263
e 199 294
e 199 298
e 200 217
e 200 248
e 200 263
e 200 294
e 200 298
e 201 202
e 201 205
e 201 208
e 201 223
e 201 232
e 201 238
e 201 248
e 201 249
e 201 255
e 201 264
e 201 265
e 201 266
e 201 280
e 202 205
e 202 208
e 202 232
e 202 238
e 202 248
e 202 255
e 202 281
e 202 282
e 203 204
e 203 214
e 203 224
e 203 225
e 203 283
e 203 295
e 203 299
e 203 300
e 204 216
e 204 224
e 204 225
e 204 283
e 204 295
e 204 299
e 204 300
e 205 208
e 205 228
e 205 232
e 205 238
e 205 248
e 205 255
e 205 267
e 205 284
e 205 285
e 206 212
e 206 213
e 206 229
e 206 230
e 206 231
e 206 243
e 206 244
e 206 249
e 206 251
e 206 259
e 206 268
e 206 283
e 207 211
e 207 225
e 207 232
e 207 268
e 207 286
e 207 287
e 207 296
e 208 232
e 208 234
e 208 238
e 208 248
e 208 251
e 208 255
e 208 270
e 208 271
e 208 290
e 209 222
e 209 231
e 209 235
e 209 236
e 209 237
e 209 239
e 209 258
e 209 266
e 209 269
e 209 271
e 209 292
e 209 294
e 209 297
e 210 211
e 210 224
e 210 238
e 210 242
e 210 252
e 210 291
e 210 292
e 211 225
e 211 238
e 211 252
e 211 291
e 211 292
e 212 213
e 212 239
e 212 243
e 212 244
e 212 249
e 212 251
e 212 253
e 212 259
e 212 268
e 212 283
e 213 240
e 213 241
e 213 243
e 213 244
e 213 249
e 213 251
e 213 254
e 213 259
e 213 268
e 213 283
e 214 215
e 214 216
e 214 217
e 214 242
e 214 255
e 214 297
e 214 301
e 215 216
e 215 217
e 215 242
e 215 255
e 215 297
e 215 301
e 216 217
e 216 242
e 216 255
e 216 297
e 216 301
e 217 242
e 217 255
e 217 297
e 217 301
e 218 219
e 218 223
e 218 228
e 218 233
e 218 234
e 218 244
e 218 252
e 218 257
e 218 258
e 218 263
e 218 274
e 218 275
e 219 223
e 219 228
e 219 233
e 219 234
e 219 252
e 219 262
e 219 263
e 219 278
e 219 279
e 220 221
e 220 222
e 220 226
e 220 229
e 220 240
e 220 245
e 220 246
e 220 247
e 220 257
e 220 262
e 220 264
e 220 276
e 220 286
e 220 295
e 221 222
e 221 227
e 221 230
e 221 241
e 221 246
e 221 247
e 221 256
e 221 265
e 221 267
e 221 270
e 221 277
e 221 287
e 221 291
e 222 231
e 222 239
e 222 246
e 222 247
e 222 258
e 222 266
e 222 269
e 222 271
e 222 292
e 222 294
e 222 297
e 223 228
e 223 233
e 223 234
e 223 249
e 223 252
e 223 263
e 223 264
e 223 265
e 223 266
e 223 280
e 224 225
e 224 242
e 224 283
e 224 295
e 224 299
e 224 300
e 225 283
e 225 295
e 225 299
e 225 300
e 226 227
e 226 229
e 226 240
e 226 245
e 226 250
e 226 257
e 226 262
e 226 264
e 226 276
e 226 286
e 226 295
e 227 230
e 227 241
e 227 250
e 227 256
e 227 265
e 227 267
e 227 270
e 227 277
e 227 287
e 227 291
e 228 233
e 228 234
e 228 252
e 228 263
e 228 267
e 228 284
e 228 285
e 229 230
e 229 231
e 229 240
e 229 245
e 229 257
e 229 262
e 229 264
e 229 276
e 229 286
e 229 295
e 230 231
e 230 241
e 230 256
e 230 265
e 230 267
e 230 270
e 230 277
e 230 287
e 230 291
e 231 239
e 231 258
e 231 266
e 231 269
e 231 271
e 231 292
e 231 294
e 231 297
e 232 238
e 232 248
e 232 255
e 232 268
e 232 286
e 232 287
e 232 296
e 233 234
e 233 252
e 233 263
e 233 269
e 233 288
e 233 289
e 234 251
e 234 252
e 234 263
e 234 270
e 234 271
e 234 290
e 235 236
e 235 237
e 235 253
e 235 260
e 235 272
e 235 274
e 235 284
e 235 288
e 235 293
e 235 299
e 235 301
e 236 237
e 236 246
e 236 254
e 236 273
e 236 275
e 236 278
e 236 280
e 236 281
e 236 296
e 236 298
e 237 247
e 237 250
e 237 261
e 237 279
e 237 282
e 237 285
e 237 289
e 237 290
e 237 300
e 238 248
e 238 252
e 238 255
e 238 291
e 238 292
e 239 253
e 239 258
e 239 266
e 239 269
e 239 271
e 239 292
e 239 294
e 239 297
e 240 241
e 240 245
e 240 254
e 240 257
e 240 262
e 240 264
e 240 276
e 240 286
e 240 295
e 241 254
e 241 256
e 241 265
e 241 267
e 241 270
e 241 277
e 241 287
e 241 291
e 242 255
e 242 297
e 242 301
e 243 244
e 243 249
e 243 251
e 243 256
e 243 259
e 243 268
e 243 272
e 243 273
e 243 283
e 244 249
e 244 251
e 244 257
e 244 258
e 244 259
e 244 268
e 244 274
e 244 275
e 244 283
e 245 257
e 245 260
e 245 261
e 245 262
e 245 264
e 245 276
e 245 286
e 245 295
e 246 247
e 246 254
e 246 273
e 246 275
e 246 278
e 246 280
e 246 281
e 246 296
e 246 298
e 247 250
e 247 261
e 247 279
e 247 282
e 247 285
e 247 289
e 247 290
e 247 300
e 248 255
e 248 263
e 248 294
e 248 298
e 249 251
e 249 259
e 249 264
e 249 265
e 249 266
e 249 268
e 249 280
e 249 283
e 250 261
e 250 279
e 250 282
e 250 285
e 250 289
e 250 290
e 250 300
e 251 259
e 251 268
e 251 270
e 251 271
e 251 283
e 251 290
e 252 263
e 252 291
e 252 292
e 253 260
e 253 272
e 253 274
e 253 284
e 253 288
e 253 293
e 253 299
e 253 301
e 254 273
e 254 275
e 254 278
e 254 280
e 254 281
e 254 296
e 254 298
e 255 297
e 255 301
e 256 265
e 256 267
e 256 270
e 256 272
e 256 273
e 256 277
e 256 287
e 256 291
e 257 258
e 257 262
e 257 264
e 257 274
e 257 275
e 257 276
e 257 286
e 257 295
e 258 266
e 258 269
e 258 271
e 258 274
e 258 275
e 258 292
e 258 294
e 258 297
e 259 268
e 259 276
e 259 277
e 259 283
e 259 293
e 260 261
e 260 272
e 260 274
e 260 284
e 260 288
e 260 293
e 260 299
e 260 301
e 261 279
e 261 282
e 261 285
e 261 289
e 261 290
e 261 300
e 262 264
e 262 276
e 262 278
e 262 279
e 262 286
e 262 295
e 263 294
e 263 298
e 264 265
e 264 266
e 264 276
e 264 280
e 264 286
e 264 295
e 265 266
e 265 267
e 265 270
e 265 277
e 265 280
e 265 287
e 265 291
e 266 269
e 266 271
e 266 280
e 266 292
e 266 294
e 266 297
e 267 270
e 267 277
e 267 284
e 267 285
e 267 287
e 267 291
e 268 283
e 268 286
e 268 287
e 268 296
e 269 271
e 269 288
e 269 289
e 269 292
e 269 294
e 269 297
e 270 271
e 270 277
e 270 287
e 270 290
e 270 291
e 271 290
e 271 292
e 271 294
e 271 297
e 272 273
e 272 274
e 272 284
e 272 288
e 272 293
e 272 299
e 272 301
e 273 275
e 273 278
e 273 280
e 273 281
e 273 296
e 273 298
e 274 275
e 274 284
e 274 288
e 274 293
e 274 299
e 274 301
e 275 278
e 275 280
e 275 281
e 275 296
e 275 298
e 276 277
e 276 286
e 276 293
e 276 295
e 277 287
e 277 291
e 277 293
e 278 279
e 278 280
e 278 281
e 278 296
e 278 298
e 279 282
e 279 285
e 279 289
e 279 290
e 279 300
e 280 281
e 280 296
e 280 298
e 281 282
e 281 296
e 281 298
e 282 285
e 282 289
e 282 290
e 282 300
e 283 295
e 283 299
e 283 300
e 284 285
e 284 288
e 284 293
e 284 299
e 284 301
e 285 289
e 285 290
e 285 300
e 286 287
e 286 295
e 286 296
e 287 291
e 287 296
e 288 289
e 288 293
e 288 299
e 288 301
e 289 290
e 289 300
e 290 300
e 291 292
e 292 294
e 292 297
e 293 299
e 293 301
e 294 297
e 294 298
e 295 299
e 295 300
e 296 298
e 297 301
e 299 300
e 299 301
